p cnf 441 1760
c p weight 180 0 0
c p weight -180 1 0
c p weight 181 1.0 0
c p weight -181 1 0
176 -175 173 0
176 -175 174 0
-176 175 173 0
-176 175 174 0
176 175 -173 -174 0
-176 -175 -173 -174 0
177 173 -174 0
177 -173 174 0
-177 173 174 0
-177 -173 -174 0
178 179 -176 0
178 -176 177 0
-178 179 176 0
-178 176 177 0
178 -176 -173 0
-178 176 -173 0
178 -179 176 173 -177 0
-178 -179 -176 173 -177 0
179 -173 177 0
-179 173 177 0
-180 177 0
179 -180 -173 0
-179 -180 173 0
179 180 173 -177 0
-179 180 -173 -177 0
-181 177 0
179 -181 173 0
-179 -181 -173 0
179 181 -173 -177 0
-179 181 173 -177 0
182 -178 179 0
182 -178 177 0
-182 178 179 0
-182 178 177 0
182 178 -179 -177 0
-182 -178 -179 -177 0
183 179 -177 0
183 -179 177 0
-183 179 177 0
-183 -179 -177 0
184 -182 179 0
184 -182 172 0
-184 182 179 0
-184 182 172 0
184 -182 171 -183 0
184 -182 -171 183 0
-184 182 171 -183 0
-184 182 -171 183 0
184 182 -179 171 183 -172 0
184 182 -179 -171 -183 -172 0
-184 -182 -179 171 183 -172 0
-184 -182 -179 -171 -183 -172 0
186 179 -171 0
186 -179 171 0
-186 179 171 0
-186 -179 -171 0
185 183 -172 0
185 -183 172 0
-185 183 172 0
-185 -183 -172 0
187 -184 186 0
187 -184 170 0
-187 184 186 0
-187 184 170 0
187 -184 169 -172 0
187 -184 -169 172 0
-187 184 169 -172 0
-187 184 -169 172 0
187 184 -186 169 172 -170 0
187 184 -186 -169 -172 -170 0
-187 -184 -186 169 172 -170 0
-187 -184 -186 -169 -172 -170 0
189 186 -169 0
189 -186 169 0
-189 186 169 0
-189 -186 -169 0
188 172 -170 0
188 -172 170 0
-188 172 170 0
-188 -172 -170 0
190 -187 189 0
190 -187 168 0
-190 187 189 0
-190 187 168 0
190 -187 167 -170 0
190 -187 -167 170 0
-190 187 167 -170 0
-190 187 -167 170 0
190 187 -189 167 170 -168 0
190 187 -189 -167 -170 -168 0
-190 -187 -189 167 170 -168 0
-190 -187 -189 -167 -170 -168 0
192 189 -167 0
192 -189 167 0
-192 189 167 0
-192 -189 -167 0
191 170 -168 0
191 -170 168 0
-191 170 168 0
-191 -170 -168 0
193 -190 192 0
193 -190 166 0
-193 190 192 0
-193 190 166 0
193 -190 165 -168 0
193 -190 -165 168 0
-193 190 165 -168 0
-193 190 -165 168 0
193 190 -192 165 168 -166 0
193 190 -192 -165 -168 -166 0
-193 -190 -192 165 168 -166 0
-193 -190 -192 -165 -168 -166 0
195 192 -165 0
195 -192 165 0
-195 192 165 0
-195 -192 -165 0
194 168 -166 0
194 -168 166 0
-194 168 166 0
-194 -168 -166 0
196 -193 195 0
196 -193 164 0
-196 193 195 0
-196 193 164 0
196 -193 163 -166 0
196 -193 -163 166 0
-196 193 163 -166 0
-196 193 -163 166 0
196 193 -195 163 166 -164 0
196 193 -195 -163 -166 -164 0
-196 -193 -195 163 166 -164 0
-196 -193 -195 -163 -166 -164 0
198 195 -163 0
198 -195 163 0
-198 195 163 0
-198 -195 -163 0
197 166 -164 0
197 -166 164 0
-197 166 164 0
-197 -166 -164 0
199 -196 198 0
199 -196 162 0
-199 196 198 0
-199 196 162 0
199 -196 161 -164 0
199 -196 -161 164 0
-199 196 161 -164 0
-199 196 -161 164 0
199 196 -198 161 164 -162 0
199 196 -198 -161 -164 -162 0
-199 -196 -198 161 164 -162 0
-199 -196 -198 -161 -164 -162 0
201 198 -161 0
201 -198 161 0
-201 198 161 0
-201 -198 -161 0
200 164 -162 0
200 -164 162 0
-200 164 162 0
-200 -164 -162 0
202 -199 201 0
202 -199 160 0
-202 199 201 0
-202 199 160 0
202 -199 159 -162 0
202 -199 -159 162 0
-202 199 159 -162 0
-202 199 -159 162 0
202 199 -201 159 162 -160 0
202 199 -201 -159 -162 -160 0
-202 -199 -201 159 162 -160 0
-202 -199 -201 -159 -162 -160 0
204 201 -159 0
204 -201 159 0
-204 201 159 0
-204 -201 -159 0
203 162 -160 0
203 -162 160 0
-203 162 160 0
-203 -162 -160 0
205 -202 204 0
205 -202 158 0
-205 202 204 0
-205 202 158 0
205 -202 157 -160 0
205 -202 -157 160 0
-205 202 157 -160 0
-205 202 -157 160 0
205 202 -204 157 160 -158 0
205 202 -204 -157 -160 -158 0
-205 -202 -204 157 160 -158 0
-205 -202 -204 -157 -160 -158 0
207 204 -157 0
207 -204 157 0
-207 204 157 0
-207 -204 -157 0
206 160 -158 0
206 -160 158 0
-206 160 158 0
-206 -160 -158 0
208 -205 207 0
208 -205 156 0
-208 205 207 0
-208 205 156 0
208 -205 155 -158 0
208 -205 -155 158 0
-208 205 155 -158 0
-208 205 -155 158 0
208 205 -207 155 158 -156 0
208 205 -207 -155 -158 -156 0
-208 -205 -207 155 158 -156 0
-208 -205 -207 -155 -158 -156 0
210 207 -155 0
210 -207 155 0
-210 207 155 0
-210 -207 -155 0
209 158 -156 0
209 -158 156 0
-209 158 156 0
-209 -158 -156 0
211 -208 210 0
211 -208 154 0
-211 208 210 0
-211 208 154 0
211 -208 153 -156 0
211 -208 -153 156 0
-211 208 153 -156 0
-211 208 -153 156 0
211 208 -210 153 156 -154 0
211 208 -210 -153 -156 -154 0
-211 -208 -210 153 156 -154 0
-211 -208 -210 -153 -156 -154 0
213 210 -153 0
213 -210 153 0
-213 210 153 0
-213 -210 -153 0
212 156 -154 0
212 -156 154 0
-212 156 154 0
-212 -156 -154 0
214 -211 213 0
214 -211 152 0
-214 211 213 0
-214 211 152 0
214 -211 151 -154 0
214 -211 -151 154 0
-214 211 151 -154 0
-214 211 -151 154 0
214 211 -213 151 154 -152 0
214 211 -213 -151 -154 -152 0
-214 -211 -213 151 154 -152 0
-214 -211 -213 -151 -154 -152 0
216 213 -151 0
216 -213 151 0
-216 213 151 0
-216 -213 -151 0
215 154 -152 0
215 -154 152 0
-215 154 152 0
-215 -154 -152 0
217 -214 216 0
217 -214 150 0
-217 214 216 0
-217 214 150 0
217 -214 149 -152 0
217 -214 -149 152 0
-217 214 149 -152 0
-217 214 -149 152 0
217 214 -216 149 152 -150 0
217 214 -216 -149 -152 -150 0
-217 -214 -216 149 152 -150 0
-217 -214 -216 -149 -152 -150 0
219 216 -149 0
219 -216 149 0
-219 216 149 0
-219 -216 -149 0
218 152 -150 0
218 -152 150 0
-218 152 150 0
-218 -152 -150 0
220 -217 219 0
220 -217 148 0
-220 217 219 0
-220 217 148 0
220 -217 147 -150 0
220 -217 -147 150 0
-220 217 147 -150 0
-220 217 -147 150 0
220 217 -219 147 150 -148 0
220 217 -219 -147 -150 -148 0
-220 -217 -219 147 150 -148 0
-220 -217 -219 -147 -150 -148 0
222 219 -147 0
222 -219 147 0
-222 219 147 0
-222 -219 -147 0
221 150 -148 0
221 -150 148 0
-221 150 148 0
-221 -150 -148 0
223 -220 222 0
223 -220 146 0
-223 220 222 0
-223 220 146 0
223 -220 145 -148 0
223 -220 -145 148 0
-223 220 145 -148 0
-223 220 -145 148 0
223 220 -222 145 148 -146 0
223 220 -222 -145 -148 -146 0
-223 -220 -222 145 148 -146 0
-223 -220 -222 -145 -148 -146 0
225 222 -145 0
225 -222 145 0
-225 222 145 0
-225 -222 -145 0
224 148 -146 0
224 -148 146 0
-224 148 146 0
-224 -148 -146 0
226 -223 225 0
226 -223 144 0
-226 223 225 0
-226 223 144 0
226 -223 143 -146 0
226 -223 -143 146 0
-226 223 143 -146 0
-226 223 -143 146 0
226 223 -225 143 146 -144 0
226 223 -225 -143 -146 -144 0
-226 -223 -225 143 146 -144 0
-226 -223 -225 -143 -146 -144 0
228 225 -143 0
228 -225 143 0
-228 225 143 0
-228 -225 -143 0
227 146 -144 0
227 -146 144 0
-227 146 144 0
-227 -146 -144 0
229 -226 228 0
229 -226 142 0
-229 226 228 0
-229 226 142 0
229 -226 141 -144 0
229 -226 -141 144 0
-229 226 141 -144 0
-229 226 -141 144 0
229 226 -228 141 144 -142 0
229 226 -228 -141 -144 -142 0
-229 -226 -228 141 144 -142 0
-229 -226 -228 -141 -144 -142 0
231 228 -141 0
231 -228 141 0
-231 228 141 0
-231 -228 -141 0
230 144 -142 0
230 -144 142 0
-230 144 142 0
-230 -144 -142 0
232 -229 231 0
232 -229 140 0
-232 229 231 0
-232 229 140 0
232 -229 139 -142 0
232 -229 -139 142 0
-232 229 139 -142 0
-232 229 -139 142 0
232 229 -231 139 142 -140 0
232 229 -231 -139 -142 -140 0
-232 -229 -231 139 142 -140 0
-232 -229 -231 -139 -142 -140 0
234 231 -139 0
234 -231 139 0
-234 231 139 0
-234 -231 -139 0
233 142 -140 0
233 -142 140 0
-233 142 140 0
-233 -142 -140 0
235 -232 234 0
235 -232 138 0
-235 232 234 0
-235 232 138 0
235 -232 137 -140 0
235 -232 -137 140 0
-235 232 137 -140 0
-235 232 -137 140 0
235 232 -234 137 140 -138 0
235 232 -234 -137 -140 -138 0
-235 -232 -234 137 140 -138 0
-235 -232 -234 -137 -140 -138 0
237 234 -137 0
237 -234 137 0
-237 234 137 0
-237 -234 -137 0
236 140 -138 0
236 -140 138 0
-236 140 138 0
-236 -140 -138 0
238 -235 237 0
238 -235 136 0
-238 235 237 0
-238 235 136 0
238 -235 135 -138 0
238 -235 -135 138 0
-238 235 135 -138 0
-238 235 -135 138 0
238 235 -237 135 138 -136 0
238 235 -237 -135 -138 -136 0
-238 -235 -237 135 138 -136 0
-238 -235 -237 -135 -138 -136 0
240 237 -135 0
240 -237 135 0
-240 237 135 0
-240 -237 -135 0
239 138 -136 0
239 -138 136 0
-239 138 136 0
-239 -138 -136 0
241 -238 240 0
241 -238 134 0
-241 238 240 0
-241 238 134 0
241 -238 133 -136 0
241 -238 -133 136 0
-241 238 133 -136 0
-241 238 -133 136 0
241 238 -240 133 136 -134 0
241 238 -240 -133 -136 -134 0
-241 -238 -240 133 136 -134 0
-241 -238 -240 -133 -136 -134 0
243 240 -133 0
243 -240 133 0
-243 240 133 0
-243 -240 -133 0
242 136 -134 0
242 -136 134 0
-242 136 134 0
-242 -136 -134 0
244 -241 243 0
244 -241 132 0
-244 241 243 0
-244 241 132 0
244 -241 131 -134 0
244 -241 -131 134 0
-244 241 131 -134 0
-244 241 -131 134 0
244 241 -243 131 134 -132 0
244 241 -243 -131 -134 -132 0
-244 -241 -243 131 134 -132 0
-244 -241 -243 -131 -134 -132 0
246 243 -131 0
246 -243 131 0
-246 243 131 0
-246 -243 -131 0
245 134 -132 0
245 -134 132 0
-245 134 132 0
-245 -134 -132 0
247 -244 246 0
247 -244 130 0
-247 244 246 0
-247 244 130 0
247 -244 129 -132 0
247 -244 -129 132 0
-247 244 129 -132 0
-247 244 -129 132 0
247 244 -246 129 132 -130 0
247 244 -246 -129 -132 -130 0
-247 -244 -246 129 132 -130 0
-247 -244 -246 -129 -132 -130 0
249 246 -129 0
249 -246 129 0
-249 246 129 0
-249 -246 -129 0
248 132 -130 0
248 -132 130 0
-248 132 130 0
-248 -132 -130 0
250 -247 249 0
250 -247 128 0
-250 247 249 0
-250 247 128 0
250 -247 127 -130 0
250 -247 -127 130 0
-250 247 127 -130 0
-250 247 -127 130 0
250 247 -249 127 130 -128 0
250 247 -249 -127 -130 -128 0
-250 -247 -249 127 130 -128 0
-250 -247 -249 -127 -130 -128 0
252 249 -127 0
252 -249 127 0
-252 249 127 0
-252 -249 -127 0
251 130 -128 0
251 -130 128 0
-251 130 128 0
-251 -130 -128 0
253 -250 252 0
253 -250 126 0
-253 250 252 0
-253 250 126 0
253 -250 125 -128 0
253 -250 -125 128 0
-253 250 125 -128 0
-253 250 -125 128 0
253 250 -252 125 128 -126 0
253 250 -252 -125 -128 -126 0
-253 -250 -252 125 128 -126 0
-253 -250 -252 -125 -128 -126 0
255 252 -125 0
255 -252 125 0
-255 252 125 0
-255 -252 -125 0
254 128 -126 0
254 -128 126 0
-254 128 126 0
-254 -128 -126 0
256 -253 255 0
256 -253 124 0
-256 253 255 0
-256 253 124 0
256 -253 123 -126 0
256 -253 -123 126 0
-256 253 123 -126 0
-256 253 -123 126 0
256 253 -255 123 126 -124 0
256 253 -255 -123 -126 -124 0
-256 -253 -255 123 126 -124 0
-256 -253 -255 -123 -126 -124 0
258 255 -123 0
258 -255 123 0
-258 255 123 0
-258 -255 -123 0
257 126 -124 0
257 -126 124 0
-257 126 124 0
-257 -126 -124 0
259 -256 258 0
259 -256 122 0
-259 256 258 0
-259 256 122 0
259 -256 121 -124 0
259 -256 -121 124 0
-259 256 121 -124 0
-259 256 -121 124 0
259 256 -258 121 124 -122 0
259 256 -258 -121 -124 -122 0
-259 -256 -258 121 124 -122 0
-259 -256 -258 -121 -124 -122 0
261 258 -121 0
261 -258 121 0
-261 258 121 0
-261 -258 -121 0
260 124 -122 0
260 -124 122 0
-260 124 122 0
-260 -124 -122 0
262 -259 261 0
262 -259 120 0
-262 259 261 0
-262 259 120 0
262 -259 119 -122 0
262 -259 -119 122 0
-262 259 119 -122 0
-262 259 -119 122 0
262 259 -261 119 122 -120 0
262 259 -261 -119 -122 -120 0
-262 -259 -261 119 122 -120 0
-262 -259 -261 -119 -122 -120 0
264 261 -119 0
264 -261 119 0
-264 261 119 0
-264 -261 -119 0
263 122 -120 0
263 -122 120 0
-263 122 120 0
-263 -122 -120 0
265 -262 264 0
265 -262 118 0
-265 262 264 0
-265 262 118 0
265 -262 117 -120 0
265 -262 -117 120 0
-265 262 117 -120 0
-265 262 -117 120 0
265 262 -264 117 120 -118 0
265 262 -264 -117 -120 -118 0
-265 -262 -264 117 120 -118 0
-265 -262 -264 -117 -120 -118 0
267 264 -117 0
267 -264 117 0
-267 264 117 0
-267 -264 -117 0
266 120 -118 0
266 -120 118 0
-266 120 118 0
-266 -120 -118 0
268 -265 267 0
268 -265 116 0
-268 265 267 0
-268 265 116 0
268 -265 115 -118 0
268 -265 -115 118 0
-268 265 115 -118 0
-268 265 -115 118 0
268 265 -267 115 118 -116 0
268 265 -267 -115 -118 -116 0
-268 -265 -267 115 118 -116 0
-268 -265 -267 -115 -118 -116 0
270 267 -115 0
270 -267 115 0
-270 267 115 0
-270 -267 -115 0
269 118 -116 0
269 -118 116 0
-269 118 116 0
-269 -118 -116 0
271 -268 270 0
271 -268 114 0
-271 268 270 0
-271 268 114 0
271 -268 113 -116 0
271 -268 -113 116 0
-271 268 113 -116 0
-271 268 -113 116 0
271 268 -270 113 116 -114 0
271 268 -270 -113 -116 -114 0
-271 -268 -270 113 116 -114 0
-271 -268 -270 -113 -116 -114 0
273 270 -113 0
273 -270 113 0
-273 270 113 0
-273 -270 -113 0
272 116 -114 0
272 -116 114 0
-272 116 114 0
-272 -116 -114 0
274 -271 273 0
274 -271 112 0
-274 271 273 0
-274 271 112 0
274 -271 111 -114 0
274 -271 -111 114 0
-274 271 111 -114 0
-274 271 -111 114 0
274 271 -273 111 114 -112 0
274 271 -273 -111 -114 -112 0
-274 -271 -273 111 114 -112 0
-274 -271 -273 -111 -114 -112 0
276 273 -111 0
276 -273 111 0
-276 273 111 0
-276 -273 -111 0
275 114 -112 0
275 -114 112 0
-275 114 112 0
-275 -114 -112 0
277 -274 276 0
277 -274 110 0
-277 274 276 0
-277 274 110 0
277 -274 109 -112 0
277 -274 -109 112 0
-277 274 109 -112 0
-277 274 -109 112 0
277 274 -276 109 112 -110 0
277 274 -276 -109 -112 -110 0
-277 -274 -276 109 112 -110 0
-277 -274 -276 -109 -112 -110 0
279 276 -109 0
279 -276 109 0
-279 276 109 0
-279 -276 -109 0
278 112 -110 0
278 -112 110 0
-278 112 110 0
-278 -112 -110 0
280 -277 279 0
280 -277 108 0
-280 277 279 0
-280 277 108 0
280 -277 107 -110 0
280 -277 -107 110 0
-280 277 107 -110 0
-280 277 -107 110 0
280 277 -279 107 110 -108 0
280 277 -279 -107 -110 -108 0
-280 -277 -279 107 110 -108 0
-280 -277 -279 -107 -110 -108 0
282 279 -107 0
282 -279 107 0
-282 279 107 0
-282 -279 -107 0
281 110 -108 0
281 -110 108 0
-281 110 108 0
-281 -110 -108 0
283 -280 282 0
283 -280 106 0
-283 280 282 0
-283 280 106 0
283 -280 105 -108 0
283 -280 -105 108 0
-283 280 105 -108 0
-283 280 -105 108 0
283 280 -282 105 108 -106 0
283 280 -282 -105 -108 -106 0
-283 -280 -282 105 108 -106 0
-283 -280 -282 -105 -108 -106 0
285 282 -105 0
285 -282 105 0
-285 282 105 0
-285 -282 -105 0
284 108 -106 0
284 -108 106 0
-284 108 106 0
-284 -108 -106 0
286 -283 285 0
286 -283 104 0
-286 283 285 0
-286 283 104 0
286 -283 103 -106 0
286 -283 -103 106 0
-286 283 103 -106 0
-286 283 -103 106 0
286 283 -285 103 106 -104 0
286 283 -285 -103 -106 -104 0
-286 -283 -285 103 106 -104 0
-286 -283 -285 -103 -106 -104 0
288 285 -103 0
288 -285 103 0
-288 285 103 0
-288 -285 -103 0
287 106 -104 0
287 -106 104 0
-287 106 104 0
-287 -106 -104 0
289 -286 288 0
289 -286 102 0
-289 286 288 0
-289 286 102 0
289 -286 101 -104 0
289 -286 -101 104 0
-289 286 101 -104 0
-289 286 -101 104 0
289 286 -288 101 104 -102 0
289 286 -288 -101 -104 -102 0
-289 -286 -288 101 104 -102 0
-289 -286 -288 -101 -104 -102 0
291 288 -101 0
291 -288 101 0
-291 288 101 0
-291 -288 -101 0
290 104 -102 0
290 -104 102 0
-290 104 102 0
-290 -104 -102 0
292 -289 291 0
292 -289 100 0
-292 289 291 0
-292 289 100 0
292 -289 99 -102 0
292 -289 -99 102 0
-292 289 99 -102 0
-292 289 -99 102 0
292 289 -291 99 102 -100 0
292 289 -291 -99 -102 -100 0
-292 -289 -291 99 102 -100 0
-292 -289 -291 -99 -102 -100 0
294 291 -99 0
294 -291 99 0
-294 291 99 0
-294 -291 -99 0
293 102 -100 0
293 -102 100 0
-293 102 100 0
-293 -102 -100 0
295 -292 294 0
295 -292 98 0
-295 292 294 0
-295 292 98 0
295 -292 97 -100 0
295 -292 -97 100 0
-295 292 97 -100 0
-295 292 -97 100 0
295 292 -294 97 100 -98 0
295 292 -294 -97 -100 -98 0
-295 -292 -294 97 100 -98 0
-295 -292 -294 -97 -100 -98 0
297 294 -97 0
297 -294 97 0
-297 294 97 0
-297 -294 -97 0
296 100 -98 0
296 -100 98 0
-296 100 98 0
-296 -100 -98 0
298 -295 297 0
298 -295 96 0
-298 295 297 0
-298 295 96 0
298 -295 95 -98 0
298 -295 -95 98 0
-298 295 95 -98 0
-298 295 -95 98 0
298 295 -297 95 98 -96 0
298 295 -297 -95 -98 -96 0
-298 -295 -297 95 98 -96 0
-298 -295 -297 -95 -98 -96 0
300 297 -95 0
300 -297 95 0
-300 297 95 0
-300 -297 -95 0
299 98 -96 0
299 -98 96 0
-299 98 96 0
-299 -98 -96 0
301 -298 300 0
301 -298 94 0
-301 298 300 0
-301 298 94 0
301 -298 93 -96 0
301 -298 -93 96 0
-301 298 93 -96 0
-301 298 -93 96 0
301 298 -300 93 96 -94 0
301 298 -300 -93 -96 -94 0
-301 -298 -300 93 96 -94 0
-301 -298 -300 -93 -96 -94 0
303 300 -93 0
303 -300 93 0
-303 300 93 0
-303 -300 -93 0
302 96 -94 0
302 -96 94 0
-302 96 94 0
-302 -96 -94 0
304 -301 303 0
304 -301 92 0
-304 301 303 0
-304 301 92 0
304 -301 91 -94 0
304 -301 -91 94 0
-304 301 91 -94 0
-304 301 -91 94 0
304 301 -303 91 94 -92 0
304 301 -303 -91 -94 -92 0
-304 -301 -303 91 94 -92 0
-304 -301 -303 -91 -94 -92 0
306 303 -91 0
306 -303 91 0
-306 303 91 0
-306 -303 -91 0
305 94 -92 0
305 -94 92 0
-305 94 92 0
-305 -94 -92 0
307 -304 306 0
307 -304 90 0
-307 304 306 0
-307 304 90 0
307 -304 89 -92 0
307 -304 -89 92 0
-307 304 89 -92 0
-307 304 -89 92 0
307 304 -306 89 92 -90 0
307 304 -306 -89 -92 -90 0
-307 -304 -306 89 92 -90 0
-307 -304 -306 -89 -92 -90 0
309 306 -89 0
309 -306 89 0
-309 306 89 0
-309 -306 -89 0
308 92 -90 0
308 -92 90 0
-308 92 90 0
-308 -92 -90 0
310 -307 309 0
310 -307 88 0
-310 307 309 0
-310 307 88 0
310 -307 87 -90 0
310 -307 -87 90 0
-310 307 87 -90 0
-310 307 -87 90 0
310 307 -309 87 90 -88 0
310 307 -309 -87 -90 -88 0
-310 -307 -309 87 90 -88 0
-310 -307 -309 -87 -90 -88 0
312 309 -87 0
312 -309 87 0
-312 309 87 0
-312 -309 -87 0
311 90 -88 0
311 -90 88 0
-311 90 88 0
-311 -90 -88 0
313 -310 312 0
313 -310 86 0
-313 310 312 0
-313 310 86 0
313 -310 85 -88 0
313 -310 -85 88 0
-313 310 85 -88 0
-313 310 -85 88 0
313 310 -312 85 88 -86 0
313 310 -312 -85 -88 -86 0
-313 -310 -312 85 88 -86 0
-313 -310 -312 -85 -88 -86 0
315 312 -85 0
315 -312 85 0
-315 312 85 0
-315 -312 -85 0
314 88 -86 0
314 -88 86 0
-314 88 86 0
-314 -88 -86 0
316 -313 315 0
316 -313 84 0
-316 313 315 0
-316 313 84 0
316 -313 83 -86 0
316 -313 -83 86 0
-316 313 83 -86 0
-316 313 -83 86 0
316 313 -315 83 86 -84 0
316 313 -315 -83 -86 -84 0
-316 -313 -315 83 86 -84 0
-316 -313 -315 -83 -86 -84 0
318 315 -83 0
318 -315 83 0
-318 315 83 0
-318 -315 -83 0
317 86 -84 0
317 -86 84 0
-317 86 84 0
-317 -86 -84 0
319 -316 318 0
319 -316 82 0
-319 316 318 0
-319 316 82 0
319 -316 81 -84 0
319 -316 -81 84 0
-319 316 81 -84 0
-319 316 -81 84 0
319 316 -318 81 84 -82 0
319 316 -318 -81 -84 -82 0
-319 -316 -318 81 84 -82 0
-319 -316 -318 -81 -84 -82 0
321 318 -81 0
321 -318 81 0
-321 318 81 0
-321 -318 -81 0
320 84 -82 0
320 -84 82 0
-320 84 82 0
-320 -84 -82 0
322 -319 321 0
322 -319 80 0
-322 319 321 0
-322 319 80 0
322 -319 79 -82 0
322 -319 -79 82 0
-322 319 79 -82 0
-322 319 -79 82 0
322 319 -321 79 82 -80 0
322 319 -321 -79 -82 -80 0
-322 -319 -321 79 82 -80 0
-322 -319 -321 -79 -82 -80 0
324 321 -79 0
324 -321 79 0
-324 321 79 0
-324 -321 -79 0
323 82 -80 0
323 -82 80 0
-323 82 80 0
-323 -82 -80 0
325 -322 324 0
325 -322 78 0
-325 322 324 0
-325 322 78 0
325 -322 77 -80 0
325 -322 -77 80 0
-325 322 77 -80 0
-325 322 -77 80 0
325 322 -324 77 80 -78 0
325 322 -324 -77 -80 -78 0
-325 -322 -324 77 80 -78 0
-325 -322 -324 -77 -80 -78 0
327 324 -77 0
327 -324 77 0
-327 324 77 0
-327 -324 -77 0
326 80 -78 0
326 -80 78 0
-326 80 78 0
-326 -80 -78 0
328 -325 327 0
328 -325 76 0
-328 325 327 0
-328 325 76 0
328 -325 75 -78 0
328 -325 -75 78 0
-328 325 75 -78 0
-328 325 -75 78 0
328 325 -327 75 78 -76 0
328 325 -327 -75 -78 -76 0
-328 -325 -327 75 78 -76 0
-328 -325 -327 -75 -78 -76 0
330 327 -75 0
330 -327 75 0
-330 327 75 0
-330 -327 -75 0
329 78 -76 0
329 -78 76 0
-329 78 76 0
-329 -78 -76 0
331 -328 330 0
331 -328 74 0
-331 328 330 0
-331 328 74 0
331 -328 73 -76 0
331 -328 -73 76 0
-331 328 73 -76 0
-331 328 -73 76 0
331 328 -330 73 76 -74 0
331 328 -330 -73 -76 -74 0
-331 -328 -330 73 76 -74 0
-331 -328 -330 -73 -76 -74 0
333 330 -73 0
333 -330 73 0
-333 330 73 0
-333 -330 -73 0
332 76 -74 0
332 -76 74 0
-332 76 74 0
-332 -76 -74 0
334 -331 333 0
334 -331 72 0
-334 331 333 0
-334 331 72 0
334 -331 71 -74 0
334 -331 -71 74 0
-334 331 71 -74 0
-334 331 -71 74 0
334 331 -333 71 74 -72 0
334 331 -333 -71 -74 -72 0
-334 -331 -333 71 74 -72 0
-334 -331 -333 -71 -74 -72 0
336 333 -71 0
336 -333 71 0
-336 333 71 0
-336 -333 -71 0
335 74 -72 0
335 -74 72 0
-335 74 72 0
-335 -74 -72 0
337 -334 336 0
337 -334 70 0
-337 334 336 0
-337 334 70 0
337 -334 69 -72 0
337 -334 -69 72 0
-337 334 69 -72 0
-337 334 -69 72 0
337 334 -336 69 72 -70 0
337 334 -336 -69 -72 -70 0
-337 -334 -336 69 72 -70 0
-337 -334 -336 -69 -72 -70 0
339 336 -69 0
339 -336 69 0
-339 336 69 0
-339 -336 -69 0
338 72 -70 0
338 -72 70 0
-338 72 70 0
-338 -72 -70 0
340 -337 339 0
340 -337 68 0
-340 337 339 0
-340 337 68 0
340 -337 67 -70 0
340 -337 -67 70 0
-340 337 67 -70 0
-340 337 -67 70 0
340 337 -339 67 70 -68 0
340 337 -339 -67 -70 -68 0
-340 -337 -339 67 70 -68 0
-340 -337 -339 -67 -70 -68 0
342 339 -67 0
342 -339 67 0
-342 339 67 0
-342 -339 -67 0
341 70 -68 0
341 -70 68 0
-341 70 68 0
-341 -70 -68 0
343 -340 342 0
343 -340 66 0
-343 340 342 0
-343 340 66 0
343 -340 65 -68 0
343 -340 -65 68 0
-343 340 65 -68 0
-343 340 -65 68 0
343 340 -342 65 68 -66 0
343 340 -342 -65 -68 -66 0
-343 -340 -342 65 68 -66 0
-343 -340 -342 -65 -68 -66 0
345 342 -65 0
345 -342 65 0
-345 342 65 0
-345 -342 -65 0
344 68 -66 0
344 -68 66 0
-344 68 66 0
-344 -68 -66 0
346 -343 345 0
346 -343 64 0
-346 343 345 0
-346 343 64 0
346 -343 63 -66 0
346 -343 -63 66 0
-346 343 63 -66 0
-346 343 -63 66 0
346 343 -345 63 66 -64 0
346 343 -345 -63 -66 -64 0
-346 -343 -345 63 66 -64 0
-346 -343 -345 -63 -66 -64 0
348 345 -63 0
348 -345 63 0
-348 345 63 0
-348 -345 -63 0
347 66 -64 0
347 -66 64 0
-347 66 64 0
-347 -66 -64 0
349 -346 348 0
349 -346 62 0
-349 346 348 0
-349 346 62 0
349 -346 61 -64 0
349 -346 -61 64 0
-349 346 61 -64 0
-349 346 -61 64 0
349 346 -348 61 64 -62 0
349 346 -348 -61 -64 -62 0
-349 -346 -348 61 64 -62 0
-349 -346 -348 -61 -64 -62 0
351 348 -61 0
351 -348 61 0
-351 348 61 0
-351 -348 -61 0
350 64 -62 0
350 -64 62 0
-350 64 62 0
-350 -64 -62 0
352 -349 351 0
352 -349 60 0
-352 349 351 0
-352 349 60 0
352 -349 59 -62 0
352 -349 -59 62 0
-352 349 59 -62 0
-352 349 -59 62 0
352 349 -351 59 62 -60 0
352 349 -351 -59 -62 -60 0
-352 -349 -351 59 62 -60 0
-352 -349 -351 -59 -62 -60 0
354 351 -59 0
354 -351 59 0
-354 351 59 0
-354 -351 -59 0
353 62 -60 0
353 -62 60 0
-353 62 60 0
-353 -62 -60 0
355 -352 354 0
355 -352 58 0
-355 352 354 0
-355 352 58 0
355 -352 57 -60 0
355 -352 -57 60 0
-355 352 57 -60 0
-355 352 -57 60 0
355 352 -354 57 60 -58 0
355 352 -354 -57 -60 -58 0
-355 -352 -354 57 60 -58 0
-355 -352 -354 -57 -60 -58 0
357 354 -57 0
357 -354 57 0
-357 354 57 0
-357 -354 -57 0
356 60 -58 0
356 -60 58 0
-356 60 58 0
-356 -60 -58 0
358 -355 357 0
358 -355 56 0
-358 355 357 0
-358 355 56 0
358 -355 55 -58 0
358 -355 -55 58 0
-358 355 55 -58 0
-358 355 -55 58 0
358 355 -357 55 58 -56 0
358 355 -357 -55 -58 -56 0
-358 -355 -357 55 58 -56 0
-358 -355 -357 -55 -58 -56 0
360 357 -55 0
360 -357 55 0
-360 357 55 0
-360 -357 -55 0
359 58 -56 0
359 -58 56 0
-359 58 56 0
-359 -58 -56 0
361 -358 360 0
361 -358 54 0
-361 358 360 0
-361 358 54 0
361 -358 53 -56 0
361 -358 -53 56 0
-361 358 53 -56 0
-361 358 -53 56 0
361 358 -360 53 56 -54 0
361 358 -360 -53 -56 -54 0
-361 -358 -360 53 56 -54 0
-361 -358 -360 -53 -56 -54 0
363 360 -53 0
363 -360 53 0
-363 360 53 0
-363 -360 -53 0
362 56 -54 0
362 -56 54 0
-362 56 54 0
-362 -56 -54 0
364 -361 363 0
364 -361 52 0
-364 361 363 0
-364 361 52 0
364 -361 51 -54 0
364 -361 -51 54 0
-364 361 51 -54 0
-364 361 -51 54 0
364 361 -363 51 54 -52 0
364 361 -363 -51 -54 -52 0
-364 -361 -363 51 54 -52 0
-364 -361 -363 -51 -54 -52 0
366 363 -51 0
366 -363 51 0
-366 363 51 0
-366 -363 -51 0
365 54 -52 0
365 -54 52 0
-365 54 52 0
-365 -54 -52 0
367 -364 366 0
367 -364 50 0
-367 364 366 0
-367 364 50 0
367 -364 49 -52 0
367 -364 -49 52 0
-367 364 49 -52 0
-367 364 -49 52 0
367 364 -366 49 52 -50 0
367 364 -366 -49 -52 -50 0
-367 -364 -366 49 52 -50 0
-367 -364 -366 -49 -52 -50 0
369 366 -49 0
369 -366 49 0
-369 366 49 0
-369 -366 -49 0
368 52 -50 0
368 -52 50 0
-368 52 50 0
-368 -52 -50 0
370 -367 369 0
370 -367 48 0
-370 367 369 0
-370 367 48 0
370 -367 47 -50 0
370 -367 -47 50 0
-370 367 47 -50 0
-370 367 -47 50 0
370 367 -369 47 50 -48 0
370 367 -369 -47 -50 -48 0
-370 -367 -369 47 50 -48 0
-370 -367 -369 -47 -50 -48 0
372 369 -47 0
372 -369 47 0
-372 369 47 0
-372 -369 -47 0
371 50 -48 0
371 -50 48 0
-371 50 48 0
-371 -50 -48 0
373 -370 372 0
373 -370 46 0
-373 370 372 0
-373 370 46 0
373 -370 45 -48 0
373 -370 -45 48 0
-373 370 45 -48 0
-373 370 -45 48 0
373 370 -372 45 48 -46 0
373 370 -372 -45 -48 -46 0
-373 -370 -372 45 48 -46 0
-373 -370 -372 -45 -48 -46 0
375 372 -45 0
375 -372 45 0
-375 372 45 0
-375 -372 -45 0
374 48 -46 0
374 -48 46 0
-374 48 46 0
-374 -48 -46 0
376 -373 375 0
376 -373 44 0
-376 373 375 0
-376 373 44 0
376 -373 43 -46 0
376 -373 -43 46 0
-376 373 43 -46 0
-376 373 -43 46 0
376 373 -375 43 46 -44 0
376 373 -375 -43 -46 -44 0
-376 -373 -375 43 46 -44 0
-376 -373 -375 -43 -46 -44 0
378 375 -43 0
378 -375 43 0
-378 375 43 0
-378 -375 -43 0
377 46 -44 0
377 -46 44 0
-377 46 44 0
-377 -46 -44 0
379 -376 378 0
379 -376 42 0
-379 376 378 0
-379 376 42 0
379 -376 41 -44 0
379 -376 -41 44 0
-379 376 41 -44 0
-379 376 -41 44 0
379 376 -378 41 44 -42 0
379 376 -378 -41 -44 -42 0
-379 -376 -378 41 44 -42 0
-379 -376 -378 -41 -44 -42 0
381 378 -41 0
381 -378 41 0
-381 378 41 0
-381 -378 -41 0
380 44 -42 0
380 -44 42 0
-380 44 42 0
-380 -44 -42 0
382 -379 381 0
382 -379 40 0
-382 379 381 0
-382 379 40 0
382 -379 39 -42 0
382 -379 -39 42 0
-382 379 39 -42 0
-382 379 -39 42 0
382 379 -381 39 42 -40 0
382 379 -381 -39 -42 -40 0
-382 -379 -381 39 42 -40 0
-382 -379 -381 -39 -42 -40 0
384 381 -39 0
384 -381 39 0
-384 381 39 0
-384 -381 -39 0
383 42 -40 0
383 -42 40 0
-383 42 40 0
-383 -42 -40 0
385 -382 384 0
385 -382 38 0
-385 382 384 0
-385 382 38 0
385 -382 37 -40 0
385 -382 -37 40 0
-385 382 37 -40 0
-385 382 -37 40 0
385 382 -384 37 40 -38 0
385 382 -384 -37 -40 -38 0
-385 -382 -384 37 40 -38 0
-385 -382 -384 -37 -40 -38 0
387 384 -37 0
387 -384 37 0
-387 384 37 0
-387 -384 -37 0
386 40 -38 0
386 -40 38 0
-386 40 38 0
-386 -40 -38 0
388 -385 387 0
388 -385 36 0
-388 385 387 0
-388 385 36 0
388 -385 35 -38 0
388 -385 -35 38 0
-388 385 35 -38 0
-388 385 -35 38 0
388 385 -387 35 38 -36 0
388 385 -387 -35 -38 -36 0
-388 -385 -387 35 38 -36 0
-388 -385 -387 -35 -38 -36 0
390 387 -35 0
390 -387 35 0
-390 387 35 0
-390 -387 -35 0
389 38 -36 0
389 -38 36 0
-389 38 36 0
-389 -38 -36 0
391 -388 390 0
391 -388 34 0
-391 388 390 0
-391 388 34 0
391 -388 33 -36 0
391 -388 -33 36 0
-391 388 33 -36 0
-391 388 -33 36 0
391 388 -390 33 36 -34 0
391 388 -390 -33 -36 -34 0
-391 -388 -390 33 36 -34 0
-391 -388 -390 -33 -36 -34 0
393 390 -33 0
393 -390 33 0
-393 390 33 0
-393 -390 -33 0
392 36 -34 0
392 -36 34 0
-392 36 34 0
-392 -36 -34 0
394 -391 393 0
394 -391 32 0
-394 391 393 0
-394 391 32 0
394 -391 31 -34 0
394 -391 -31 34 0
-394 391 31 -34 0
-394 391 -31 34 0
394 391 -393 31 34 -32 0
394 391 -393 -31 -34 -32 0
-394 -391 -393 31 34 -32 0
-394 -391 -393 -31 -34 -32 0
396 393 -31 0
396 -393 31 0
-396 393 31 0
-396 -393 -31 0
395 34 -32 0
395 -34 32 0
-395 34 32 0
-395 -34 -32 0
397 -394 396 0
397 -394 30 0
-397 394 396 0
-397 394 30 0
397 -394 29 -32 0
397 -394 -29 32 0
-397 394 29 -32 0
-397 394 -29 32 0
397 394 -396 29 32 -30 0
397 394 -396 -29 -32 -30 0
-397 -394 -396 29 32 -30 0
-397 -394 -396 -29 -32 -30 0
399 396 -29 0
399 -396 29 0
-399 396 29 0
-399 -396 -29 0
398 32 -30 0
398 -32 30 0
-398 32 30 0
-398 -32 -30 0
400 -397 399 0
400 -397 28 0
-400 397 399 0
-400 397 28 0
400 -397 27 -30 0
400 -397 -27 30 0
-400 397 27 -30 0
-400 397 -27 30 0
400 397 -399 27 30 -28 0
400 397 -399 -27 -30 -28 0
-400 -397 -399 27 30 -28 0
-400 -397 -399 -27 -30 -28 0
402 399 -27 0
402 -399 27 0
-402 399 27 0
-402 -399 -27 0
401 30 -28 0
401 -30 28 0
-401 30 28 0
-401 -30 -28 0
403 -400 402 0
403 -400 26 0
-403 400 402 0
-403 400 26 0
403 -400 25 -28 0
403 -400 -25 28 0
-403 400 25 -28 0
-403 400 -25 28 0
403 400 -402 25 28 -26 0
403 400 -402 -25 -28 -26 0
-403 -400 -402 25 28 -26 0
-403 -400 -402 -25 -28 -26 0
405 402 -25 0
405 -402 25 0
-405 402 25 0
-405 -402 -25 0
404 28 -26 0
404 -28 26 0
-404 28 26 0
-404 -28 -26 0
406 -403 405 0
406 -403 24 0
-406 403 405 0
-406 403 24 0
406 -403 23 -26 0
406 -403 -23 26 0
-406 403 23 -26 0
-406 403 -23 26 0
406 403 -405 23 26 -24 0
406 403 -405 -23 -26 -24 0
-406 -403 -405 23 26 -24 0
-406 -403 -405 -23 -26 -24 0
408 405 -23 0
408 -405 23 0
-408 405 23 0
-408 -405 -23 0
407 26 -24 0
407 -26 24 0
-407 26 24 0
-407 -26 -24 0
409 -406 408 0
409 -406 22 0
-409 406 408 0
-409 406 22 0
409 -406 21 -24 0
409 -406 -21 24 0
-409 406 21 -24 0
-409 406 -21 24 0
409 406 -408 21 24 -22 0
409 406 -408 -21 -24 -22 0
-409 -406 -408 21 24 -22 0
-409 -406 -408 -21 -24 -22 0
411 408 -21 0
411 -408 21 0
-411 408 21 0
-411 -408 -21 0
410 24 -22 0
410 -24 22 0
-410 24 22 0
-410 -24 -22 0
412 -409 411 0
412 -409 20 0
-412 409 411 0
-412 409 20 0
412 -409 19 -22 0
412 -409 -19 22 0
-412 409 19 -22 0
-412 409 -19 22 0
412 409 -411 19 22 -20 0
412 409 -411 -19 -22 -20 0
-412 -409 -411 19 22 -20 0
-412 -409 -411 -19 -22 -20 0
414 411 -19 0
414 -411 19 0
-414 411 19 0
-414 -411 -19 0
413 22 -20 0
413 -22 20 0
-413 22 20 0
-413 -22 -20 0
415 -412 414 0
415 -412 18 0
-415 412 414 0
-415 412 18 0
415 -412 17 -20 0
415 -412 -17 20 0
-415 412 17 -20 0
-415 412 -17 20 0
415 412 -414 17 20 -18 0
415 412 -414 -17 -20 -18 0
-415 -412 -414 17 20 -18 0
-415 -412 -414 -17 -20 -18 0
417 414 -17 0
417 -414 17 0
-417 414 17 0
-417 -414 -17 0
416 20 -18 0
416 -20 18 0
-416 20 18 0
-416 -20 -18 0
418 -415 417 0
418 -415 16 0
-418 415 417 0
-418 415 16 0
418 -415 15 -18 0
418 -415 -15 18 0
-418 415 15 -18 0
-418 415 -15 18 0
418 415 -417 15 18 -16 0
418 415 -417 -15 -18 -16 0
-418 -415 -417 15 18 -16 0
-418 -415 -417 -15 -18 -16 0
420 417 -15 0
420 -417 15 0
-420 417 15 0
-420 -417 -15 0
419 18 -16 0
419 -18 16 0
-419 18 16 0
-419 -18 -16 0
421 -418 420 0
421 -418 14 0
-421 418 420 0
-421 418 14 0
421 -418 13 -16 0
421 -418 -13 16 0
-421 418 13 -16 0
-421 418 -13 16 0
421 418 -420 13 16 -14 0
421 418 -420 -13 -16 -14 0
-421 -418 -420 13 16 -14 0
-421 -418 -420 -13 -16 -14 0
423 420 -13 0
423 -420 13 0
-423 420 13 0
-423 -420 -13 0
422 16 -14 0
422 -16 14 0
-422 16 14 0
-422 -16 -14 0
424 -421 423 0
424 -421 12 0
-424 421 423 0
-424 421 12 0
424 -421 11 -14 0
424 -421 -11 14 0
-424 421 11 -14 0
-424 421 -11 14 0
424 421 -423 11 14 -12 0
424 421 -423 -11 -14 -12 0
-424 -421 -423 11 14 -12 0
-424 -421 -423 -11 -14 -12 0
426 423 -11 0
426 -423 11 0
-426 423 11 0
-426 -423 -11 0
425 14 -12 0
425 -14 12 0
-425 14 12 0
-425 -14 -12 0
427 -424 426 0
427 -424 10 0
-427 424 426 0
-427 424 10 0
427 -424 9 -12 0
427 -424 -9 12 0
-427 424 9 -12 0
-427 424 -9 12 0
427 424 -426 9 12 -10 0
427 424 -426 -9 -12 -10 0
-427 -424 -426 9 12 -10 0
-427 -424 -426 -9 -12 -10 0
429 426 -9 0
429 -426 9 0
-429 426 9 0
-429 -426 -9 0
428 12 -10 0
428 -12 10 0
-428 12 10 0
-428 -12 -10 0
430 -427 429 0
430 -427 8 0
-430 427 429 0
-430 427 8 0
430 -427 7 -10 0
430 -427 -7 10 0
-430 427 7 -10 0
-430 427 -7 10 0
430 427 -429 7 10 -8 0
430 427 -429 -7 -10 -8 0
-430 -427 -429 7 10 -8 0
-430 -427 -429 -7 -10 -8 0
432 429 -7 0
432 -429 7 0
-432 429 7 0
-432 -429 -7 0
431 10 -8 0
431 -10 8 0
-431 10 8 0
-431 -10 -8 0
433 -430 432 0
433 -430 6 0
-433 430 432 0
-433 430 6 0
433 -430 5 -8 0
433 -430 -5 8 0
-433 430 5 -8 0
-433 430 -5 8 0
433 430 -432 5 8 -6 0
433 430 -432 -5 -8 -6 0
-433 -430 -432 5 8 -6 0
-433 -430 -432 -5 -8 -6 0
435 432 -5 0
435 -432 5 0
-435 432 5 0
-435 -432 -5 0
434 8 -6 0
434 -8 6 0
-434 8 6 0
-434 -8 -6 0
436 -433 435 0
436 -433 4 0
-436 433 435 0
-436 433 4 0
436 -433 3 -6 0
436 -433 -3 6 0
-436 433 3 -6 0
-436 433 -3 6 0
436 433 -435 3 6 -4 0
436 433 -435 -3 -6 -4 0
-436 -433 -435 3 6 -4 0
-436 -433 -435 -3 -6 -4 0
438 435 -3 0
438 -435 3 0
-438 435 3 0
-438 -435 -3 0
437 6 -4 0
437 -6 4 0
-437 6 4 0
-437 -6 -4 0
439 -436 438 0
439 -436 2 0
-439 436 438 0
-439 436 2 0
439 -436 1 -4 0
439 -436 -1 4 0
-439 436 1 -4 0
-439 436 -1 4 0
439 436 -438 1 4 -2 0
439 436 -438 -1 -4 -2 0
-439 -436 -438 1 4 -2 0
-439 -436 -438 -1 -4 -2 0
441 438 -1 0
441 -438 1 0
-441 438 1 0
-441 -438 -1 0
440 4 -2 0
440 -4 2 0
-440 4 2 0
-440 -4 -2 0
